c Sudoku solution
p cnf 729 0
257 0
285 0
315 0
321 0
336 0
352 0
368 0
384 0
516 0
533 0
597 0
377 0
628 0
639 0
655 0
662 0
691 0
738 0
789 0
819 0
846 0
878 0
917 0
887 0
614 0
647 0
767 0
926 0
951 0
948 0
742 0
969 0
865 0
831 0
713 0
771 0
796 0
754 0
853 0
725 0
411 0
522 0
427 0
435 0
575 0
588 0
824 0
932 0
892 0
983 0
137 0
234 0
145 0
458 0
466 0
443 0
482 0
349 0
241 0
393 0
544 0
559 0
561 0
156 0
164 0
263 0
123 0
229 0
181 0
673 0
686 0
974 0
995 0
479 0
494 0
276 0
172 0
298 0
199 0
118 0
212 0
